(set-info :smt-lib-version 2.6)
(set-info :category "crafted")
(set-logic QF_FF)
(define-sort FF0 () (_ FiniteField 52435875175126190479447740508185965837690552500527637822603658699938581184513))
(declare-fun _54_alt () FF0)
(declare-fun _53_alt () FF0)
(declare-fun _44_alt () FF0)
(declare-fun _43_alt () FF0)
(declare-fun _52_alt () FF0)
(declare-fun _46_alt () FF0)
(declare-fun _1_alt () FF0)
(declare-fun _51_alt () FF0)
(declare-fun _38_alt () FF0)
(declare-fun _50_alt () FF0)
(declare-fun _4_alt () FF0)
(declare-fun _49_alt () FF0)
(declare-fun _33_alt () FF0)
(declare-fun _3_alt () FF0)
(declare-fun _39_alt () FF0)
(declare-fun _31_alt () FF0)
(declare-fun _7_alt () FF0)
(declare-fun _2_alt () FF0)
(declare-fun _37_alt () FF0)
(declare-fun _36_alt () FF0)
(declare-fun _25_alt () FF0)
(declare-fun _24_alt () FF0)
(declare-fun _34_alt () FF0)
(declare-fun _13_alt () FF0)
(declare-fun _12_alt () FF0)
(declare-fun _0_alt () FF0)
(declare-fun _32_alt () FF0)
(declare-fun _20_alt () FF0)
(declare-fun _30_alt () FF0)
(declare-fun _6_alt () FF0)
(declare-fun _29_alt () FF0)
(declare-fun _28_alt () FF0)
(declare-fun _19_alt () FF0)
(declare-fun _18_alt () FF0)
(declare-fun _5_alt () FF0)
(declare-fun _17_alt () FF0)
(declare-fun _16_alt () FF0)
(declare-fun _15_alt () FF0)
(declare-fun _54 () FF0)
(declare-fun _53 () FF0)
(declare-fun _44 () FF0)
(declare-fun _43 () FF0)
(declare-fun _52 () FF0)
(declare-fun _46 () FF0)
(declare-fun _1 () FF0)
(declare-fun _51 () FF0)
(declare-fun _38 () FF0)
(declare-fun _50 () FF0)
(declare-fun _4 () FF0)
(declare-fun _49 () FF0)
(declare-fun _33 () FF0)
(declare-fun _3 () FF0)
(declare-fun _39 () FF0)
(declare-fun _31 () FF0)
(declare-fun _7 () FF0)
(declare-fun _2 () FF0)
(declare-fun _37 () FF0)
(declare-fun _36 () FF0)
(declare-fun _25 () FF0)
(declare-fun _24 () FF0)
(declare-fun _34 () FF0)
(declare-fun _13 () FF0)
(declare-fun _12 () FF0)
(declare-fun _0 () FF0)
(declare-fun _32 () FF0)
(declare-fun _20 () FF0)
(declare-fun _30 () FF0)
(declare-fun _6 () FF0)
(declare-fun _29 () FF0)
(declare-fun _28 () FF0)
(declare-fun _19 () FF0)
(declare-fun _18 () FF0)
(declare-fun _5 () FF0)
(declare-fun _17 () FF0)
(declare-fun _16 () FF0)
(declare-fun _15 () FF0)
(declare-fun out_alt () FF0)
(declare-fun out () FF0)
(assert 
  (let ((let0 (as ff52435875175126190479447740508185965837690552500527637822603658699938581184512 FF0)))
  (let ((let1 _54_alt))
  (let ((let2 (ff.mul let1 let0)))
  (let ((let3 _53_alt))
  (let ((let4 _44_alt))
  (let ((let5 _43_alt))
  (let ((let6 (ff.add let5 let4 let3 let2)))
  (let ((let7 (ff.add let5 let4)))
  (let ((let8 (ff.mul let3 let7)))
  (let ((let9 (= let8 let6)))
  (let ((let10 (ff.mul let3 let0)))
  (let ((let11 _52_alt))
  (let ((let12 _46_alt))
  (let ((let13 (ff.add let12 let11 let10)))
  (let ((let14 (ff.mul let11 let12)))
  (let ((let15 (= let14 let13)))
  (let ((let16 _1_alt))
  (let ((let17 _51_alt))
  (let ((let18 (ff.mul let17 let16)))
  (let ((let19 (= let18 let11)))
  (let ((let20 (as ff1 FF0)))
  (let ((let21 _38_alt))
  (let ((let22 (ff.mul let21 let0)))
  (let ((let23 (ff.add let22 let20)))
  (let ((let24 _50_alt))
  (let ((let25 (ff.mul let24 let23)))
  (let ((let26 (= let25 let17)))
  (let ((let27 _4_alt))
  (let ((let28 _49_alt))
  (let ((let29 (ff.mul let28 let27)))
  (let ((let30 (= let29 let24)))
  (let ((let31 _33_alt))
  (let ((let32 _3_alt))
  (let ((let33 (ff.mul let32 let0)))
  (let ((let34 (ff.add let33 let20)))
  (let ((let35 (ff.mul let34 let31)))
  (let ((let36 (= let35 let28)))
  (let ((let37 (ff.mul let12 let0)))
  (let ((let38 _39_alt))
  (let ((let39 _31_alt))
  (let ((let40 (ff.add let39 let38 let37)))
  (let ((let41 (ff.mul let38 let39)))
  (let ((let42 (= let41 let40)))
  (let ((let43 _7_alt))
  (let ((let44 (ff.mul let43 let0)))
  (let ((let45 (ff.add let44 let20)))
  (let ((let46 (ff.mul let27 let0)))
  (let ((let47 (ff.add let46 let20)))
  (let ((let48 (ff.mul let47 let45)))
  (let ((let49 (= let48 let4)))
  (let ((let50 (ff.mul let27 let38)))
  (let ((let51 (= let50 let5)))
  (let ((let52 (ff.mul let38 let0)))
  (let ((let53 _2_alt))
  (let ((let54 (ff.mul let53 let0)))
  (let ((let55 (ff.add let54 let21 let52 let20)))
  (let ((let56 (ff.add let54 let20)))
  (let ((let57 (ff.mul let56 let21)))
  (let ((let58 (= let57 let55)))
  (let ((let59 _37_alt))
  (let ((let60 (ff.add let32 let59 let22)))
  (let ((let61 (ff.mul let59 let32)))
  (let ((let62 (= let61 let60)))
  (let ((let63 (ff.mul let59 let0)))
  (let ((let64 _36_alt))
  (let ((let65 _25_alt))
  (let ((let66 _24_alt))
  (let ((let67 (ff.add let66 let65 let64 let63)))
  (let ((let68 (ff.add let66 let65)))
  (let ((let69 (ff.mul let64 let68)))
  (let ((let70 (= let69 let67)))
  (let ((let71 (ff.mul let64 let0)))
  (let ((let72 _34_alt))
  (let ((let73 (ff.mul let72 let0)))
  (let ((let74 (ff.add let31 let73 let71 let20)))
  (let ((let75 (ff.add let73 let20)))
  (let ((let76 (ff.mul let75 let31)))
  (let ((let77 (= let76 let74)))
  (let ((let78 _13_alt))
  (let ((let79 _12_alt))
  (let ((let80 _0_alt))
  (let ((let81 (ff.mul let80 let0)))
  (let ((let82 (ff.add let81 let79 let78)))
  (let ((let83 (ff.mul let82 let82)))
  (let ((let84 (= let83 let72)))
  (let ((let85 (ff.mul let31 let0)))
  (let ((let86 _32_alt))
  (let ((let87 (ff.add let39 let86 let85)))
  (let ((let88 (ff.mul let86 let39)))
  (let ((let89 (= let88 let87)))
  (let ((let90 (ff.mul let86 let0)))
  (let ((let91 _20_alt))
  (let ((let92 (ff.add let91 let66 let65 let90)))
  (let ((let93 (ff.mul let91 let68)))
  (let ((let94 (= let93 let92)))
  (let ((let95 (ff.mul let16 let0)))
  (let ((let96 (ff.add let95 let20)))
  (let ((let97 _30_alt))
  (let ((let98 (ff.mul let97 let96)))
  (let ((let99 (= let98 let39)))
  (let ((let100 _6_alt))
  (let ((let101 _29_alt))
  (let ((let102 (ff.mul let101 let100)))
  (let ((let103 (= let102 let97)))
  (let ((let104 _28_alt))
  (let ((let105 (ff.mul let104 let45)))
  (let ((let106 (= let105 let101)))
  (let ((let107 (ff.mul let45 let96)))
  (let ((let108 (= let107 let104)))
  (let ((let109 (ff.mul let47 let80)))
  (let ((let110 (= let109 let65)))
  (let ((let111 (ff.mul let27 let91)))
  (let ((let112 (= let111 let66)))
  (let ((let113 (ff.mul let91 let0)))
  (let ((let114 _19_alt))
  (let ((let115 (ff.add let32 let114 let113)))
  (let ((let116 (ff.mul let114 let32)))
  (let ((let117 (= let116 let115)))
  (let ((let118 (ff.mul let114 let0)))
  (let ((let119 _18_alt))
  (let ((let120 _5_alt))
  (let ((let121 (ff.add let120 let119 let118)))
  (let ((let122 (ff.mul let119 let120)))
  (let ((let123 (= let122 let121)))
  (let ((let124 (ff.mul let119 let0)))
  (let ((let125 _17_alt))
  (let ((let126 (ff.add let53 let125 let124)))
  (let ((let127 (ff.mul let125 let53)))
  (let ((let128 (= let127 let126)))
  (let ((let129 (ff.mul let125 let0)))
  (let ((let130 _16_alt))
  (let ((let131 (ff.add let43 let130 let129)))
  (let ((let132 (ff.mul let130 let43)))
  (let ((let133 (= let132 let131)))
  (let ((let134 (ff.mul let130 let0)))
  (let ((let135 _15_alt))
  (let ((let136 (ff.add let100 let135 let134)))
  (let ((let137 (ff.mul let135 let100)))
  (let ((let138 (= let137 let136)))
  (let ((let139 (ff.mul let135 let0)))
  (let ((let140 (ff.add let16 let79 let78 let139)))
  (let ((let141 (ff.add let79 let78)))
  (let ((let142 (ff.mul let141 let16)))
  (let ((let143 (= let142 let140)))
  (let ((let144 (ff.mul let120 let0)))
  (let ((let145 (ff.add let144 let20)))
  (let ((let146 (ff.mul let145 let53)))
  (let ((let147 (= let146 let78)))
  (let ((let148 (ff.mul let120 let80)))
  (let ((let149 (= let148 let79)))
  (let ((let150 (ff.mul let43 let43)))
  (let ((let151 (= let150 let43)))
  (let ((let152 (ff.mul let100 let100)))
  (let ((let153 (= let152 let100)))
  (let ((let154 (ff.mul let120 let120)))
  (let ((let155 (= let154 let120)))
  (let ((let156 (ff.mul let27 let27)))
  (let ((let157 (= let156 let27)))
  (let ((let158 (ff.mul let32 let32)))
  (let ((let159 (= let158 let32)))
  (let ((let160 (ff.mul let53 let53)))
  (let ((let161 (= let160 let53)))
  (let ((let162 (ff.mul let16 let16)))
  (let ((let163 (= let162 let16)))
  (let ((let164 (ff.mul let80 let80)))
  (let ((let165 (= let164 let80)))
  (let ((let166 (and let165 let163 let161 let159 let157 let155 let153 let151 let149 let147 let143 let138 let133 let128 let123 let117 let112 let110 let108 let106 let103 let99 let94 let89 let84 let77 let70 let62 let58 let51 let49 let42 let36 let30 let26 let19 let15 let9)))
  (let ((let167 _54))
  (let ((let168 (ff.mul let167 let0)))
  (let ((let169 _53))
  (let ((let170 _44))
  (let ((let171 _43))
  (let ((let172 (ff.add let171 let170 let169 let168)))
  (let ((let173 (ff.add let171 let170)))
  (let ((let174 (ff.mul let169 let173)))
  (let ((let175 (= let174 let172)))
  (let ((let176 (ff.mul let169 let0)))
  (let ((let177 _52))
  (let ((let178 _46))
  (let ((let179 (ff.add let178 let177 let176)))
  (let ((let180 (ff.mul let177 let178)))
  (let ((let181 (= let180 let179)))
  (let ((let182 _1))
  (let ((let183 _51))
  (let ((let184 (ff.mul let183 let182)))
  (let ((let185 (= let184 let177)))
  (let ((let186 _38))
  (let ((let187 (ff.mul let186 let0)))
  (let ((let188 (ff.add let187 let20)))
  (let ((let189 _50))
  (let ((let190 (ff.mul let189 let188)))
  (let ((let191 (= let190 let183)))
  (let ((let192 _4))
  (let ((let193 _49))
  (let ((let194 (ff.mul let193 let192)))
  (let ((let195 (= let194 let189)))
  (let ((let196 _33))
  (let ((let197 _3))
  (let ((let198 (ff.mul let197 let0)))
  (let ((let199 (ff.add let198 let20)))
  (let ((let200 (ff.mul let199 let196)))
  (let ((let201 (= let200 let193)))
  (let ((let202 (ff.mul let178 let0)))
  (let ((let203 _39))
  (let ((let204 _31))
  (let ((let205 (ff.add let204 let203 let202)))
  (let ((let206 (ff.mul let203 let204)))
  (let ((let207 (= let206 let205)))
  (let ((let208 _7))
  (let ((let209 (ff.mul let208 let0)))
  (let ((let210 (ff.add let209 let20)))
  (let ((let211 (ff.mul let192 let0)))
  (let ((let212 (ff.add let211 let20)))
  (let ((let213 (ff.mul let212 let210)))
  (let ((let214 (= let213 let170)))
  (let ((let215 (ff.mul let192 let203)))
  (let ((let216 (= let215 let171)))
  (let ((let217 (ff.mul let203 let0)))
  (let ((let218 _2))
  (let ((let219 (ff.mul let218 let0)))
  (let ((let220 (ff.add let219 let186 let217 let20)))
  (let ((let221 (ff.add let219 let20)))
  (let ((let222 (ff.mul let221 let186)))
  (let ((let223 (= let222 let220)))
  (let ((let224 _37))
  (let ((let225 (ff.add let197 let224 let187)))
  (let ((let226 (ff.mul let224 let197)))
  (let ((let227 (= let226 let225)))
  (let ((let228 (ff.mul let224 let0)))
  (let ((let229 _36))
  (let ((let230 _25))
  (let ((let231 _24))
  (let ((let232 (ff.add let231 let230 let229 let228)))
  (let ((let233 (ff.add let231 let230)))
  (let ((let234 (ff.mul let229 let233)))
  (let ((let235 (= let234 let232)))
  (let ((let236 (ff.mul let229 let0)))
  (let ((let237 _34))
  (let ((let238 (ff.mul let237 let0)))
  (let ((let239 (ff.add let196 let238 let236 let20)))
  (let ((let240 (ff.add let238 let20)))
  (let ((let241 (ff.mul let240 let196)))
  (let ((let242 (= let241 let239)))
  (let ((let243 _13))
  (let ((let244 _12))
  (let ((let245 _0))
  (let ((let246 (ff.mul let245 let0)))
  (let ((let247 (ff.add let246 let244 let243)))
  (let ((let248 (ff.mul let247 let247)))
  (let ((let249 (= let248 let237)))
  (let ((let250 (ff.mul let196 let0)))
  (let ((let251 _32))
  (let ((let252 (ff.add let204 let251 let250)))
  (let ((let253 (ff.mul let251 let204)))
  (let ((let254 (= let253 let252)))
  (let ((let255 (ff.mul let251 let0)))
  (let ((let256 _20))
  (let ((let257 (ff.add let256 let231 let230 let255)))
  (let ((let258 (ff.mul let256 let233)))
  (let ((let259 (= let258 let257)))
  (let ((let260 (ff.mul let182 let0)))
  (let ((let261 (ff.add let260 let20)))
  (let ((let262 _30))
  (let ((let263 (ff.mul let262 let261)))
  (let ((let264 (= let263 let204)))
  (let ((let265 _6))
  (let ((let266 _29))
  (let ((let267 (ff.mul let266 let265)))
  (let ((let268 (= let267 let262)))
  (let ((let269 _28))
  (let ((let270 (ff.mul let269 let210)))
  (let ((let271 (= let270 let266)))
  (let ((let272 (ff.mul let210 let261)))
  (let ((let273 (= let272 let269)))
  (let ((let274 (ff.mul let212 let245)))
  (let ((let275 (= let274 let230)))
  (let ((let276 (ff.mul let192 let256)))
  (let ((let277 (= let276 let231)))
  (let ((let278 (ff.mul let256 let0)))
  (let ((let279 _19))
  (let ((let280 (ff.add let197 let279 let278)))
  (let ((let281 (ff.mul let279 let197)))
  (let ((let282 (= let281 let280)))
  (let ((let283 (ff.mul let279 let0)))
  (let ((let284 _18))
  (let ((let285 _5))
  (let ((let286 (ff.add let285 let284 let283)))
  (let ((let287 (ff.mul let284 let285)))
  (let ((let288 (= let287 let286)))
  (let ((let289 (ff.mul let284 let0)))
  (let ((let290 _17))
  (let ((let291 (ff.add let218 let290 let289)))
  (let ((let292 (ff.mul let290 let218)))
  (let ((let293 (= let292 let291)))
  (let ((let294 (ff.mul let290 let0)))
  (let ((let295 _16))
  (let ((let296 (ff.add let208 let295 let294)))
  (let ((let297 (ff.mul let295 let208)))
  (let ((let298 (= let297 let296)))
  (let ((let299 (ff.mul let295 let0)))
  (let ((let300 _15))
  (let ((let301 (ff.add let265 let300 let299)))
  (let ((let302 (ff.mul let300 let265)))
  (let ((let303 (= let302 let301)))
  (let ((let304 (ff.mul let300 let0)))
  (let ((let305 (ff.add let182 let244 let243 let304)))
  (let ((let306 (ff.add let244 let243)))
  (let ((let307 (ff.mul let306 let182)))
  (let ((let308 (= let307 let305)))
  (let ((let309 (ff.mul let285 let0)))
  (let ((let310 (ff.add let309 let20)))
  (let ((let311 (ff.mul let310 let218)))
  (let ((let312 (= let311 let243)))
  (let ((let313 (ff.mul let285 let245)))
  (let ((let314 (= let313 let244)))
  (let ((let315 (ff.mul let208 let208)))
  (let ((let316 (= let315 let208)))
  (let ((let317 (ff.mul let265 let265)))
  (let ((let318 (= let317 let265)))
  (let ((let319 (ff.mul let285 let285)))
  (let ((let320 (= let319 let285)))
  (let ((let321 (ff.mul let192 let192)))
  (let ((let322 (= let321 let192)))
  (let ((let323 (ff.mul let197 let197)))
  (let ((let324 (= let323 let197)))
  (let ((let325 (ff.mul let218 let218)))
  (let ((let326 (= let325 let218)))
  (let ((let327 (ff.mul let182 let182)))
  (let ((let328 (= let327 let182)))
  (let ((let329 (ff.mul let245 let245)))
  (let ((let330 (= let329 let245)))
  (let ((let331 (and let330 let328 let326 let324 let322 let320 let318 let316 let314 let312 let308 let303 let298 let293 let288 let282 let277 let275 let273 let271 let268 let264 let259 let254 let249 let242 let235 let227 let223 let216 let214 let207 let201 let195 let191 let185 let181 let175)))
  (let ((let332 out_alt))
  (let ((let333 out))
  (let ((let334 (= let333 let332)))
  (let ((let335 (not let334)))
  (let ((let336 (= let265 let100)))
  (let ((let337 (= let218 let53)))
  (let ((let338 (= let208 let43)))
  (let ((let339 (= let192 let27)))
  (let ((let340 (= let197 let32)))
  (let ((let341 (= let182 let16)))
  (let ((let342 (= let285 let120)))
  (let ((let343 (= let245 let80)))
  (let ((let344 (and let343 let342 let341 let340 let339 let338 let337 let336)))
  (let ((let345 (and let344 let335 let331 let166)))
  let345
))))))))))))))))))))))))))))))))))))))))))))))))))))))))))))))))))))))))))))))))))))))))))))))))))))))))))))))))))))))))))))))))))))))))))))))))))))))))))))))))))))))))))))))))))))))))))))))))))))))))))))))))))))))))))))))))))))))))))))))))))))))))))))))))))))))))))))))))))))))))))))))))))))))))))))))))))))))))))))))))))))))))))))))))))))))))))
)
(check-sat)
